<number of tasks>
50

<cycle time>
1000

<order strength>
0.201


<task times>
1 538
2 469
3 583
4 429
5 564
6 585
7 754
8 453
9 472
10 612
11 389
12 284
13 725
14 506
15 583
16 528
17 572
18 611
19 673
20 469
21 639
22 752
23 500
24 650
25 628
26 511
27 295
28 682
29 581
30 662
31 514
32 503
33 559
34 801
35 676
36 525
37 798
38 764
39 242
40 317
41 578
42 507
43 366
44 600
45 556
46 587
47 420
48 552
49 502
50 618

<precedence relations>
1,6
2,7
3,8
4,9
4,10
4,11
5,10
5,23
5,43
6,13
7,14
8,15
9,12
9,16
10,19
11,17
11,18
12,20
13,22
14,23
15,24
16,21
17,25
18,25
19,26
19,27
20,28
21,29
22,30
23,31
25,32
26,31
26,33
28,34
29,35
30,37
31,36
31,39
32,38
34,41
35,43
36,40
37,44
38,42
39,44
39,45
39,46
40,48
41,47
42,48
43,50
44,49

<end>
